GLPSOL--GLPK LP/MIP Solver 5.0
Parameter(s) specified in the command line:
 --lp ../modeles/2_194.lp --log 2_194.log
Reading problem data from '../modeles/2_194.lp'...
397 rows, 780 columns, 2722 non-zeros
388 integer variables, all of which are binary
1185 lines were read
GLPK Integer Optimizer 5.0
397 rows, 780 columns, 2722 non-zeros
388 integer variables, all of which are binary
Preprocessing...
388 constraint coefficient(s) were reduced
397 rows, 778 columns, 2720 non-zeros
388 integer variables, all of which are binary
Scaling...
 A: min|aij| =  4.251e-04  max|aij| =  4.000e+00  ratio =  9.409e+03
GM: min|aij| =  1.015e-01  max|aij| =  9.849e+00  ratio =  9.700e+01
EQ: min|aij| =  1.031e-02  max|aij| =  1.000e+00  ratio =  9.700e+01
2N: min|aij| =  7.812e-03  max|aij| =  1.766e+00  ratio =  2.260e+02
Constructing initial basis...
Size of triangular part is 397
Solving LP relaxation...
GLPK Simplex Optimizer 5.0
397 rows, 778 columns, 2720 non-zeros
      0: obj =   4.000000000e+00 inf =   9.500e+00 (5)
     29: obj =   4.449316962e-01 inf =   0.000e+00 (0)
*   115: obj =  -1.414089347e+00 inf =   1.128e-16 (0)
OPTIMAL LP SOLUTION FOUND
Integer optimization begins...
Long-step dual simplex will be used
+   115: mip =     not found yet >=              -inf        (1; 0)
+   340: >>>>>  -1.414089347e+00 >=  -1.414089347e+00 < 0.1% (225; 0)
+   340: mip =  -1.414089347e+00 >=     tree is empty   0.0% (0; 449)
INTEGER OPTIMAL SOLUTION FOUND
Time used:   0.1 secs
Memory used: 1.2 Mb (1229404 bytes)
